InboundTrucks  = 8;
OutboundTrucks = 5;
InboundDoors   = 4;
OutboundDoors  = 4;
ReleaseTime    = [5,0,0,5,2,1,1,1];
UnloadTime     = [43,23,41,43,37,22,38,33];
LoadTime       = [16,15,17,21,22];
TransferTime   = [| 0,0,11,0,22 | 44,36,24,38,0 | 27,10,0,0,31 | 0,19,23,31,0 | 15,34,16,32,32 | 48,26,12,39,44 | 0,34,0,45,28 | 50,49,33,46,22 |];
